% Auto-generated by scripts/generate_dzn.py
% problem_type   = regex
% instance       = regex_61
% source_json    = instances_json/2_high_blowup/regex_61.json
% blowup         = 14.875
% representation = NFA

mode = 1;

var_count = 13;
n_constraints = 2;
Q = 12;
S = 3;
q0 = [1, 1];
F = [{12}, {4}];
weights = [10, 7, 7, 5, 7, 6, 7, 9, 10, 1, 3, 7, 3];
d_dfa = array3d(1..2, 1..12, 1..3, [
  % k = 1
    0, 0, 0,
    0, 0, 0,
    0, 0, 0,
    0, 0, 0,
    0, 0, 0,
    0, 0, 0,
    0, 0, 0,
    0, 0, 0,
    0, 0, 0,
    0, 0, 0,
    0, 0, 0,
    0, 0, 0,

  % k = 2
    0, 0, 0,
    0, 0, 0,
    0, 0, 0,
    0, 0, 0,
    0, 0, 0,
    0, 0, 0,
    0, 0, 0,
    0, 0, 0,
    0, 0, 0,
    0, 0, 0,
    0, 0, 0,
    0, 0, 0
]);
d_nfa = array3d(1..2, 1..12, 1..3, [
  % k = 1
    {1, 2}, {1}, {1},
    {}, {}, {3},
    {4}, {4}, {4},
    {5}, {5}, {5},
    {6}, {6}, {6},
    {7}, {7}, {7},
    {8}, {8}, {8},
    {9}, {9}, {9},
    {10}, {10}, {10},
    {11}, {11}, {11},
    {12}, {12}, {12},
    {}, {}, {},

  % k = 2
    {2}, {1}, {1},
    {3}, {2}, {2},
    {4}, {3}, {3},
    {}, {4}, {4},
    {}, {}, {},
    {}, {}, {},
    {}, {}, {},
    {}, {}, {},
    {}, {}, {},
    {}, {}, {},
    {}, {}, {},
    {}, {}, {}
]);
